nbGenes = 10;
preference = [[0 34 38 73 84 15 65 84 57 82 ]
[66 0 15 52 41 15 21 1 46 66 ]
[62 85 0 6 97 70 68 20 15 39 ]
[27 48 94 0 97 40 63 79 6 32 ]
[16 59 3 3 0 25 36 65 99 57 ]
[85 85 30 60 75 0 93 56 53 29 ]
[35 79 32 37 64 7 0 56 24 52 ]
[16 99 80 21 35 44 44 0 28 42 ]
[43 54 85 94 1 47 76 72 0 97 ]
[18 34 61 68 43 71 48 58 3 0 ]
];
